/*********************************************
 * OPL 12.6.0.0 Data
 * Author: Adrian Rodriguez Bazaga, Pau Rodriguez Esmerats
 * Creation Date: 05/01/2018 at 18:59:12
 *********************************************/

maxConsec=4;
maxPresence=16;
maxHours=10;
minHours=1;
hours=24;
demand= [33 40 40 18 40 22 33 40 28 37 20 13 8 3 0 0 0 0 0 0 0 0 0 0  ];
nNurses=64;
